000 000 000 000 000 000 000 -99 -99 -99 -99 -99 000 000 000 000 -99 -99 000 000 -99 000 -99 000 000 000 000 000 -99 -99 -99
000 000 000 000 000 000 000 -99 -99 -99 -99 -99 -99 -99 000 000 -99 -99 -99 000 -99 000 000 000 000 -99 -99 000 -99 -99 -99
-99 000 000 000 000 000 000 000 000 -99 -99 000 -99 -99 -99 000 -99 -99 -99 000 -99 000 000 000 000 000 000 000 -99 -99 -99
-99 000 000 000 000 000 -99 000 000 000 -99 000 000 -99 000 -99 -99 -99 -99 000 000 000 000 000 000 -99 000 000 -99 -99 -99
000 000 000 000 000 000 000 -99 000 000 -99 000 000 000 000 000 -99 -99 -99 000 000 000 000 000 000 000 -99 -99 -99 -99 -99
000 000 000 000 000 000 000 000 000 -99 -99 -99 000 000 000 000 000 -99 -99 000 000 -99 -99 000 000 000 -99 -99 -99 -99 -99
000 000 000 000 000 000 -99 -99 -99 -99 000 -99 000 000 -99 -99 000 000 -99 000 000 000 -99 000 000 000 -99 -99 -99 -99 -99
000 000 000 000 000 000 000 000 000 000 000 -99 000 -99 -99 -99 000 000 000 -99 000 000 -99 000 000 000 -99 -99 -99 -99 -99
000 000 000 000 -99 -99 -99 -99 -99 -99 000 000 -99 -99 -99 000 000 000 000 -99 000 -99 -99 000 000 -99 -99 -99 -99 -99 -99
-99 000 000 000 000 -99 -99 -99 -99 000 000 000 000 -99 000 000 000 000 000 -99 000 -99 -99 -99 000 -99 -99 -99 -99 -99 012
000 000 000 000 000 -99 000 000 000 000 000 000 000 000 -99 000 000 -99 000 -99 -99 000 -99 -99 -99 -99 -99 -99 -99 000 037
000 000 000 000 000 000 000 000 000 000 000 000 000 000 -99 000 000 000 000 -99 000 000 -99 -99 -99 -99 000 000 -99 000 109
000 000 000 000 000 -99 000 000 000 000 000 000 000 000 -99 000 000 000 000 -99 -99 000 -99 -99 000 -99 000 000 000 000 -99
000 000 000 000 000 -99 000 000 000 -99 000 000 000 000 -99 000 000 -99 -99 -99 -99 000 -99 000 000 -99 000 000 000 000 -99
000 -99 -99 000 000 000 000 000 000 -99 -99 000 000 000 000 000 000 -99 -99 -99 -99 000 -99 000 000 000 000 000 000 000 -99
000 -99 000 000 000 000 000 000 000 -99 -99 -99 000 000 000 000 000 -99 -99 -99 -99 000 -99 -99 000 000 000 000 000 000 -99
000 -99 -99 -99 -99 -99 000 000 000 000 -99 -99 000 000 000 000 000 000 -99 -99 -99 -99 000 -99 000 000 000 000 -99 000 000
000 -99 -99 -99 -99 -99 000 000 000 000 000 -99 -99 -99 -99 000 000 000 -99 -99 -99 000 000 -99 -99 000 000 -99 -99 000 000
000 000 000 -99 -99 -99 000 000 000 000 000 000 -99 -99 000 000 000 000 -99 -99 000 000 000 -99 000 -99 000 -99 -99 000 000
000 000 000 000 000 000 000 000 -99 -99 000 000 -99 000 000 000 000 000 -99 000 000 000 000 -99 -99 -99 -99 -99 -99 -99 -99
000 000 000 000 000 000 -99 -99 000 000 -99 -99 000 000 000 000 000 000 000 000 000 000 000 -99 -99 -99 -99 -99 -99 -99 -99
000 000 000 000 000 000 -99 000 000 000 -99 -99 000 000 000 000 000 000 000 000 000 000 000 -99 -99 -99 -99 -99 -99 -99 -99
000 000 000 000 000 000 -99 000 000 000 -99 -99 000 000 000 000 000 000 000 000 000 000 000 -99 -99 -99 -99 -99 -99 -99 -99
000 000 000 000 000 000 000 000 000 000 -99 -99 -99 000 000 000 000 000 000 000 000 000 000 -99 -99 -99 -99 -99 -99 -99 -99
000 000 000 000 000 000 000 000 000 -99 -99 -99 -99 000 000 000 000 000 000 000 000 000 -99 -99 -99 -99 -99 -99 -99 -99 -99
000 000 000 000 000 000 000 000 000 000 -99 -99 -99 000 -99 000 000 000 000 000 000 000 -99 -99 -99 -99 -99 -99 -99 -99 -99
000 000 000 000 000 000 000 000 000 000 000 -99 -99 000 000 -99 000 000 000 000 000 000 -99 -99 -99 -99 -99 -99 -99 -99 -99
000 000 000 000 000 000 000 000 000 000 -99 -99 -99 -99 000 000 000 -99 000 000 000 000 -99 -99 -99 -99 -99 -99 -99 -99 -99
000 000 000 000 000 000 000 000 000 000 000 -99 -99 000 000 000 000 000 000 000 -99 000 -99 -99 -99 -99 -99 -99 -99 -99 -99
000 000 000 000 000 000 000 000 000 000 000 -99 -99 -99 000 000 000 000 000 000 -99 000 -99 -99 -99 -99 -99 -99 -99 -99 -99
000 000 000 000 000 -99 000 000 000 000 -99 -99 -99 -99 000 000 -99 000 000 000 -99 000 -99 -99 -99 -99 -99 -99 -99 -99 -99
000 000 000 000 000 -99 -99 -99 -99 000 -99 -99 -99 -99 000 -99 -99 000 000 000 -99 000 -99 -99 -99 -99 -99 -99 -99 -99 -99
000 000 000 000 000 000 000 000 000 000 -99 -99 -99 000 000 -99 000 000 000 -99 -99 -99 -99 -99 -99 -99 -99 -99 -99 -99 000
000 000 000 000 000 000 000 000 000 000 -99 -99 -99 000 000 -99 000 000 000 000 -99 -99 -99 -99 -99 -99 -99 000 -99 000 000
000 000 000 000 000 000 000 000 000 000 000 000 000 000 000 000 000 -99 000 000 000 -99 -99 -99 -99 -99 000 000 000 000 000
000 000 000 000 000 000 000 000 000 000 000 000 000 000 000 000 000 -99 000 000 000 -99 -99 -99 -99 -99 000 000 000 000 000
000 000 000 000 000 -99 000 000 000 000 000 000 000 000 000 000 000 -99 000 000 000 -99 000 000 000 000 000 000 000 000 000
000 -99 000 000 000 000 000 000 000 000 -99 000 000 000 000 000 000 -99 000 -99 000 000 000 000 000 000 000 000 000 000 000
000 -99 000 000 000 000 -99 000 000 -99 -99 -99 000 000 000 000 000 -99 -99 000 000 000 000 000 000 000 000 000 000 000 000
000 000 000 000 -99 -99 -99 -99 -99 -99 -99 000 000 000 000 000 000 -99 -99 000 000 -99 000 000 000 000 000 000 000 000 000
000 000 -99 -99 -99 -99 -99 000 -99 -99 -99 000 000 000 000 000 000 000 000 000 -99 000 000 000 000 000 000 000 000 000 000
000 000 -99 -99 -99 -99 000 000 000 000 000 000 000 000 000 000 000 000 000 000 000 000 000 000 000 000 000 -99 -99 000 000
000 000 -99 -99 -99 000 000 000 -99 000 000 000 000 000 000 000 000 000 000 000 000 000 000 000 000 000 000 -99 -99 -99 000
000 000 -99 -99 000 000 000 -99 -99 000 000 -99 000 000 000 000 000 000 000 -99 -99 000 000 000 000 000 000 -99 -99 -99 000
000 000 000 -99 000 000 -99 -99 -99 -99 -99 000 000 000 000 000 000 000 000 -99 -99 000 000 000 000 000 000 000 -99 -99 -99
000 000 -99 -99 000 000 -99 -99 -99 -99 000 000 000 000 000 -99 000 000 000 -99 000 000 000 000 001 001 000 000 -99 -99 000
000 000 -99 000 000 000 -99 -99 -99 -99 000 000 000 000 000 -99 -99 000 -99 000 000 000 000 000 000 001 001 002 000 000 -99
000 -99 -99 000 -99 -99 -99 -99 000 000 000 000 000 000 000 -99 -99 000 -99 000 000 000 000 000 000 001 003 002 001 000 -99
000 -99 -99 -99 -99 -99 -99 -99 000 000 000 000 000 000 000 -99 -99 000 000 000 000 000 000 000 000 000 004 002 001 000 -99
-99 -99 -99 -99 -99 -99 -99 000 000 000 000 000 000 000 -99 -99 000 000 000 000 000 000 000 000 000 000 002 002 000 -99 -99
-99 -99 -99 -99 -99 -99 -99 000 000 000 000 000 -99 -99 -99 -99 000 000 000 000 000 000 000 000 000 000 000 000 000 -99 -99
-99 -99 -99 -99 -99 -99 -99 -99 000 000 000 000 000 000 -99 000 000 000 000 000 000 000 000 -99 -99 000 000 000 -99 -99 -99
000 000 000 -99 -99 -99 -99 -99 -99 000 000 000 000 -99 -99 -99 000 000 000 -99 000 000 -99 -99 000 -99 -99 -99 -99 -99 -99
000 -99 000 -99 -99 -99 -99 -99 000 000 000 000 000 -99 -99 000 000 000 000 000 -99 -99 -99 -99 -99 -99 -99 -99 -99 -99 -99
-99 -99 -99 -99 -99 -99 -99 000 000 000 000 000 -99 -99 -99 000 000 000 000 000 -99 -99 -99 -99 -99 -99 -99 -99 -99 -99 -99
